  
data_13mems 
  
_audit_creation_method            SHELXL-97 
_chemical_name_systematic 
; 
 ? 
; 
_chemical_name_common             ? 
_chemical_melting_point           ? 
_chemical_formula_moiety          ? 
_chemical_formula_sum 
 'C83.50 H18 N2 O2 S' 
_chemical_formula_weight          1113.06 
  
loop_ 
 _atom_type_symbol 
 _atom_type_description 
 _atom_type_scat_dispersion_real 
 _atom_type_scat_dispersion_imag 
 _atom_type_scat_source 
 'C'  'C'   0.0033   0.0016 
 'International Tables Vol C Tables 4.2.6.8 and 6.1.1.4' 
 'H'  'H'   0.0000   0.0000 
 'International Tables Vol C Tables 4.2.6.8 and 6.1.1.4' 
 'N'  'N'   0.0061   0.0033 
 'International Tables Vol C Tables 4.2.6.8 and 6.1.1.4' 
 'O'  'O'   0.0106   0.0060 
 'International Tables Vol C Tables 4.2.6.8 and 6.1.1.4' 
 'S'  'S'   0.1246   0.1234 
 'International Tables Vol C Tables 4.2.6.8 and 6.1.1.4' 
  
_symmetry_cell_setting            Triclinic 
_symmetry_space_group_name_H-M    P-1 
  
loop_ 
 _symmetry_equiv_pos_as_xyz 
 'x, y, z' 
 '-x, -y, -z' 
  
_cell_length_a                    10.0158(8) 
_cell_length_b                    13.1987(10) 
_cell_length_c                    17.5019(14) 
_cell_angle_alpha                 98.638(2) 
_cell_angle_beta                  91.309(2) 
_cell_angle_gamma                 98.317(2) 
_cell_volume                      2261.0(3) 
_cell_formula_units_Z             2 
_cell_measurement_temperature     100(2) 
_cell_measurement_reflns_used     ? 
_cell_measurement_theta_min       ? 
_cell_measurement_theta_max       ? 
  
_exptl_crystal_description        cubic 
_exptl_crystal_colour             black 
_exptl_crystal_size_max           0.05 
_exptl_crystal_size_mid           0.12 
_exptl_crystal_size_min           0.19 
_exptl_crystal_density_meas       ? 
_exptl_crystal_density_diffrn     1.635 
_exptl_crystal_density_method     'not measured' 
_exptl_crystal_F_000              1130 
_exptl_absorpt_coefficient_mu     0.142 
_exptl_absorpt_correction_type    'Empirical (SADABS)' 
_exptl_absorpt_correction_T_min   ? 
_exptl_absorpt_correction_T_max   ? 
_exptl_absorpt_process_details    ? 
  
_exptl_special_details 
; 
 ? 
; 
  
_diffrn_ambient_temperature       100(2) 
_diffrn_radiation_wavelength      0.71073 
_diffrn_radiation_type            MoK\a 
_diffrn_radiation_source          'fine-focus sealed tube' 
_diffrn_radiation_monochromator   graphite 
_diffrn_measurement_device_type   'CCD area detector' 
_diffrn_measurement_method        'phi and omega scans' 
_diffrn_detector_area_resol_mean  ? 
_diffrn_standards_number          ? 
_diffrn_standards_interval_count  ? 
_diffrn_standards_interval_time   ? 
_diffrn_standards_decay_%         ? 
_diffrn_reflns_number             12512 
_diffrn_reflns_av_R_equivalents   0.0188 
_diffrn_reflns_av_sigmaI/netI     0.0551 
_diffrn_reflns_limit_h_min        -11 
_diffrn_reflns_limit_h_max        12 
_diffrn_reflns_limit_k_min        -15 
_diffrn_reflns_limit_k_max        16 
_diffrn_reflns_limit_l_min        -21 
_diffrn_reflns_limit_l_max        13 
_diffrn_reflns_theta_min          1.82 
_diffrn_reflns_theta_max          25.60 
_reflns_number_total              8357 
_reflns_number_gt                 5968 
_reflns_threshold_expression      >2sigma(I) 
  
_computing_data_collection        'Bruker SMART' 
_computing_cell_refinement        'Bruker SMART' 
_computing_data_reduction         'Bruker SHELXTL' 
_computing_structure_solution     'SHELXS-97 (Sheldrick, 1990)' 
_computing_structure_refinement   'SHELXL-97 (Sheldrick, 1997)' 
_computing_molecular_graphics     'Bruker SHELXTL' 
_computing_publication_material   'Bruker SHELXTL' 
  
_refine_special_details 
; 
 Refinement of F^2^ against ALL reflections.  The weighted R-factor wR and 
 goodness of fit S are based on F^2^, conventional R-factors R are based 
 on F, with F set to zero for negative F^2^. The threshold expression of 
 F^2^ > 2sigma(F^2^) is used only for calculating R-factors(gt) etc. and is 
 not relevant to the choice of reflections for refinement.  R-factors based 
 on F^2^ are statistically about twice as large as those based on F, and R- 
 factors based on ALL data will be even larger. 
; 
  
_refine_ls_structure_factor_coef  Fsqd 
_refine_ls_matrix_type            full 
_refine_ls_weighting_scheme       calc 
_refine_ls_weighting_details 
 'calc w=1/[\s^2^(Fo^2^)+(0.0882P)^2^+0.0000P] where P=(Fo^2^+2Fc^2^)/3' 
_atom_sites_solution_primary      direct 
_atom_sites_solution_secondary    difmap 
_atom_sites_solution_hydrogens    geom 
_refine_ls_hydrogen_treatment     mixed 
_refine_ls_extinction_method      none 
_refine_ls_extinction_coef        ? 
_refine_ls_number_reflns          8357 
_refine_ls_number_parameters      829 
_refine_ls_number_restraints      34 
_refine_ls_R_factor_all           0.0792 
_refine_ls_R_factor_gt            0.0559 
_refine_ls_wR_factor_ref          0.1439 
_refine_ls_wR_factor_gt           0.1348 
_refine_ls_goodness_of_fit_ref    0.969 
_refine_ls_restrained_S_all       0.971 
_refine_ls_shift/su_max           0.001 
_refine_ls_shift/su_mean          0.000 
  
loop_ 
 _atom_site_label 
 _atom_site_type_symbol 
 _atom_site_fract_x 
 _atom_site_fract_y 
 _atom_site_fract_z 
 _atom_site_U_iso_or_equiv 
 _atom_site_adp_type 
 _atom_site_occupancy 
 _atom_site_symmetry_multiplicity 
 _atom_site_calc_flag 
 _atom_site_refinement_flags 
 _atom_site_disorder_assembly 
 _atom_site_disorder_group 
C1 C 0.3955(3) 0.16025(18) 0.17819(15) 0.0227(6) Uani 1 1 d . . . 
C2 C 0.4267(2) 0.24310(19) 0.25117(15) 0.0232(6) Uani 1 1 d . . . 
C3 C 0.1748(2) 0.23950(18) 0.24906(15) 0.0218(6) Uani 1 1 d . . . 
C4 C 0.0390(3) 0.4952(2) 0.11661(15) 0.0264(6) Uani 1 1 d . . . 
C5 C -0.0460(2) 0.50191(19) 0.17954(16) 0.0247(6) Uani 1 1 d . . . 
C6 C 0.2280(3) 0.76532(19) 0.17455(16) 0.0261(6) Uani 1 1 d . . . 
C7 C 0.5010(2) 0.35029(19) 0.23806(15) 0.0221(6) Uani 1 1 d . . . 
C8 C -0.0534(2) 0.5985(2) 0.22845(17) 0.0285(6) Uani 1 1 d . . . 
C9 C 0.5282(2) 0.42733(18) 0.30907(15) 0.0229(6) Uani 1 1 d . . . 
C10 C 0.4578(3) 0.82051(18) 0.27833(17) 0.0262(6) Uani 1 1 d . . . 
C11 C 0.3526(3) 0.75087(19) 0.14820(15) 0.0254(6) Uani 1 1 d . . . 
C12 C 0.1277(3) 0.59036(19) 0.10226(15) 0.0235(6) Uani 1 1 d . . . 
C13 C 0.3054(3) 0.5346(2) 0.46012(14) 0.0246(6) Uani 1 1 d . . . 
C14 C 0.2966(2) 0.27081(18) 0.28688(14) 0.0206(5) Uani 1 1 d . . . 
C15 C 0.1911(3) 0.37213(19) 0.38920(15) 0.0247(6) Uani 1 1 d . . . 
C16 C 0.6055(2) 0.5243(2) 0.30494(16) 0.0240(6) Uani 1 1 d . . . 
C17 C 0.1566(2) 0.16311(19) 0.17555(15) 0.0235(6) Uani 1 1 d . . . 
C18 C 0.2598(3) 0.5797(2) 0.07194(15) 0.0267(6) Uani 1 1 d . . . 
C19 C 0.0626(2) 0.29422(18) 0.26993(15) 0.0231(6) Uani 1 1 d . . . 
C20 C 0.3109(3) 0.34755(19) 0.35633(15) 0.0234(6) Uani 1 1 d . . . 
C21 C 0.4334(3) 0.6919(2) 0.44411(15) 0.0267(6) Uani 1 1 d . . . 
C22 C -0.0050(2) 0.33227(19) 0.20867(16) 0.0234(6) Uani 1 1 d . . . 
C23 C 0.0235(3) 0.6883(2) 0.21411(17) 0.0267(6) Uani 1 1 d . . . 
C24 C -0.0654(2) 0.42088(19) 0.22719(16) 0.0237(6) Uani 1 1 d . . . 
C25 C -0.0084(3) 0.4337(2) 0.36448(16) 0.0272(6) Uani 1 1 d . . . 
C26 C 0.2134(3) 0.81183(19) 0.25320(16) 0.0274(6) Uani 1 1 d . . . 
C27 C 0.0942(3) 0.21208(19) 0.10825(15) 0.0239(6) Uani 1 1 d . . . 
C28 C 0.5796(2) 0.4904(2) 0.16671(16) 0.0259(6) Uani 1 1 d . . . 
C29 C 0.0665(3) 0.3931(2) 0.08775(16) 0.0272(6) Uani 1 1 d . . . 
C30 C 0.5210(2) 0.38527(19) 0.16818(15) 0.0237(6) Uani 1 1 d . . . 
C31 C 0.4344(3) 0.42128(19) 0.37186(15) 0.0232(6) Uani 1 1 d . . . 
C32 C 0.1877(3) 0.6837(2) 0.45187(16) 0.0310(6) Uani 1 1 d . . . 
C33 C 0.2931(3) 0.4757(2) 0.04562(15) 0.0270(6) Uani 1 1 d . . . 
C34 C 0.0664(3) 0.3483(2) 0.34412(16) 0.0258(6) Uani 1 1 d . . . 
C35 C 0.4160(3) 0.4524(2) 0.06673(15) 0.0281(6) Uani 1 1 d . . . 
C36 C 0.5004(3) 0.6329(2) 0.11447(15) 0.0263(6) Uani 1 1 d . . . 
C37 C 0.5271(3) 0.7816(2) 0.33848(17) 0.0284(6) Uani 1 1 d . . . 
C38 C 0.4306(3) 0.5117(2) 0.42683(15) 0.0253(6) Uani 1 1 d . . . 
C39 C 0.5978(2) 0.61536(19) 0.36022(15) 0.0236(6) Uani 1 1 d . . . 
C40 C 0.0432(2) 0.3125(2) 0.13144(15) 0.0241(6) Uani 1 1 d . . . 
C41 C 0.0742(3) 0.7446(2) 0.35370(17) 0.0293(6) Uani 1 1 d . . . 
C42 C 0.3057(3) 0.6465(2) 0.46873(15) 0.0282(6) Uani 1 1 d . . . 
C43 C 0.1131(3) 0.6839(2) 0.15046(16) 0.0272(6) Uani 1 1 d . . . 
C44 C 0.4436(3) 0.3501(2) 0.08854(15) 0.0259(6) Uani 1 1 d . . . 
C45 C 0.4394(3) 0.77584(19) 0.40245(16) 0.0280(6) Uani 1 1 d . . . 
C46 C 0.3688(3) 0.6583(2) 0.09703(15) 0.0284(6) Uani 1 1 d . . . 
C47 C 0.5598(3) 0.70491(19) 0.18026(16) 0.0263(6) Uani 1 1 d . . . 
C48 C 0.3253(3) 0.83723(19) 0.30437(16) 0.0278(6) Uani 1 1 d . . . 
C49 C 0.1925(3) 0.76673(19) 0.40688(16) 0.0280(6) Uani 1 1 d . . . 
C50 C -0.0702(2) 0.5795(2) 0.30783(17) 0.0266(6) Uani 1 1 d . . . 
C51 C 0.6314(2) 0.5574(2) 0.23202(16) 0.0247(6) Uani 1 1 d . . . 
C52 C 0.5103(3) 0.6092(2) 0.41986(15) 0.0264(6) Uani 1 1 d . . . 
C53 C -0.0054(3) 0.6493(2) 0.36886(17) 0.0289(6) Uani 1 1 d . . . 
C54 C -0.0753(2) 0.4694(2) 0.30553(17) 0.0272(6) Uani 1 1 d . . . 
C55 C 0.4712(3) 0.78004(19) 0.20058(17) 0.0275(6) Uani 1 1 d . . . 
C56 C 0.5155(3) 0.5310(2) 0.10607(16) 0.0274(6) Uani 1 1 d . . . 
C57 C 0.6267(2) 0.6671(2) 0.23907(16) 0.0266(6) Uani 1 1 d . . . 
C58 C 0.3152(3) 0.81269(19) 0.38272(16) 0.0264(6) Uani 1 1 d . . . 
C59 C 0.0852(3) 0.76435(19) 0.27773(17) 0.0277(6) Uani 1 1 d . . . 
C60 C 0.6072(3) 0.7044(2) 0.31879(17) 0.0287(6) Uani 1 1 d . . . 
C61 C 0.1889(3) 0.4677(2) 0.44138(15) 0.0274(6) Uani 1 1 d . . . 
C62 C 0.0645(3) 0.6114(2) 0.42932(16) 0.0294(6) Uani 1 1 d . . . 
C63 C 0.0645(3) 0.5066(2) 0.42559(16) 0.0286(6) Uani 1 1 d . . . 
C64 C 0.7164(3) 0.1707(2) 0.37070(16) 0.0315(7) Uani 1 1 d . . . 
H64 H 0.8117 0.1877 0.3784 0.038 Uiso 1 1 calc R . . 
C65 C 0.5084(3) 0.0736(2) 0.39941(16) 0.0327(7) Uani 1 1 d . . . 
H65 H 0.4596 0.0246 0.4270 0.039 Uiso 1 1 calc R . . 
C66 C 0.6504(3) 0.21961(19) 0.32078(15) 0.0250(6) Uani 1 1 d . . . 
H66 H 0.6998 0.2695 0.2942 0.030 Uiso 1 1 calc R . . 
C67 C 0.5087(3) 0.19544(19) 0.30914(15) 0.0246(6) Uani 1 1 d . . . 
C68 C 0.4393(3) 0.1215(2) 0.34841(16) 0.0293(6) Uani 1 1 d . . . 
H68 H 0.3442 0.1034 0.3404 0.035 Uiso 1 1 calc R . . 
C69 C 0.6479(3) 0.0968(2) 0.41037(16) 0.0335(7) Uani 1 1 d . . . 
H69 H 0.6953 0.0631 0.4442 0.040 Uiso 1 1 calc R . . 
C70 C 0.4774(3) 0.0021(2) 0.11478(15) 0.0270(6) Uani 1 1 d . . . 
H70 H 0.3925 -0.0345 0.1248 0.032 Uiso 1 1 calc R . . 
C71 C 0.7227(3) 0.1062(2) 0.08429(16) 0.0319(7) Uani 1 1 d . . . 
H71 H 0.8073 0.1426 0.0734 0.038 Uiso 1 1 calc R . . 
C72 C 0.5064(3) 0.1073(2) 0.14176(15) 0.0247(6) Uani 1 1 d . . . 
C73 C 0.6918(3) 0.0024(2) 0.05711(16) 0.0308(6) Uani 1 1 d . . . 
H73 H 0.7540 -0.0328 0.0273 0.037 Uiso 1 1 calc R . . 
C74 C 0.6327(3) 0.1591(2) 0.12751(16) 0.0300(6) Uani 1 1 d . . . 
H74 H 0.6572 0.2306 0.1474 0.036 Uiso 1 1 calc R . . 
C75 C 0.5682(3) -0.0511(2) 0.07370(16) 0.0295(6) Uani 1 1 d . . . 
H75 H 0.5467 -0.1236 0.0569 0.035 Uiso 1 1 calc R . . 
C76 C 0.0493(3) -0.02376(19) 0.13079(16) 0.0275(6) Uani 1 1 d . . . 
H76 H 0.1149 -0.0293 0.0926 0.033 Uiso 1 1 calc R . . 
C77 C -0.0506(3) -0.1056(2) 0.13660(17) 0.0300(6) Uani 1 1 d . . . 
H77 H -0.0544 -0.1692 0.1024 0.036 Uiso 1 1 calc R . . 
C78 C -0.1376(3) -0.0017(2) 0.23897(19) 0.0381(7) Uani 1 1 d . . . 
H78 H -0.2048 0.0061 0.2760 0.046 Uiso 1 1 calc R . . 
C79 C -0.1442(3) -0.0948(2) 0.19200(18) 0.0342(7) Uani 1 1 d . . . 
H79 H -0.2122 -0.1510 0.1976 0.041 Uiso 1 1 calc R . . 
C80 C 0.0506(2) 0.06683(19) 0.18265(15) 0.0233(6) Uani 1 1 d . . . 
C1S C 0.0180(13) 0.9983(10) 0.5683(7) 0.115(9) Uani 0.50 1 d PD . . 
H12A H 0.0000 0.9715 0.6150 0.138 Uiso 0.50 1 calc PR . . 
C2S C 0.1165(7) 1.0865(5) 0.5685(5) 0.054(2) Uani 0.50 1 d PD . . 
H11A H 0.1635 1.1182 0.6158 0.065 Uiso 0.50 1 calc PR . . 
C3S C 0.1469(16) 1.1289(12) 0.5006(7) 0.078(8) Uani 0.50 1 d PD . . 
H10A H 0.2166 1.1862 0.5013 0.093 Uiso 0.50 1 calc PR . . 
C4S C 0.0710(8) 1.0841(7) 0.4313(5) 0.063(3) Uani 0.50 1 d PD . . 
H9TA H 0.0831 1.1143 0.3855 0.075 Uiso 0.50 1 calc PR . . 
C5S C -0.0222(9) 0.9940(5) 0.4319(5) 0.027(3) Uani 0.50 1 d PD . . 
H8TA H -0.0665 0.9610 0.3842 0.033 Uiso 0.50 1 calc PR . . 
C6S C -0.0542(7) 0.9493(5) 0.4986(4) 0.0443(16) Uani 0.50 1 d PD . . 
C7S C -0.1471(14) 0.8599(11) 0.5015(7) 0.054(6) Uani 0.50 1 d PD . . 
H7SA H -0.1889 0.8335 0.4498 0.081 Uiso 0.50 1 calc PR . . 
H7SB H -0.2172 0.8767 0.5375 0.081 Uiso 0.50 1 calc PR . . 
H7SC H -0.1003 0.8069 0.5194 0.081 Uiso 0.50 1 calc PR . . 
N1 N 0.2775(2) 0.12549(15) 0.14716(12) 0.0225(5) Uani 1 1 d . . . 
N2 N -0.0406(2) 0.08005(17) 0.23568(14) 0.0311(6) Uani 1 1 d . . . 
O1 O 0.08658(19) 0.16776(14) 0.04229(11) 0.0315(5) Uani 1 1 d . . . 
O2 O 0.40938(19) 0.26477(14) 0.05263(11) 0.0297(4) Uani 1 1 d . . . 
S1 S 0.16414(7) 0.37702(5) 0.00424(4) 0.02970(19) Uani 1 1 d . . . 
  
loop_ 
 _atom_site_aniso_label 
 _atom_site_aniso_U_11 
 _atom_site_aniso_U_22 
 _atom_site_aniso_U_33 
 _atom_site_aniso_U_23 
 _atom_site_aniso_U_13 
 _atom_site_aniso_U_12 
C1 0.0260(14) 0.0186(13) 0.0233(14) 0.0052(11) 0.0035(11) 0.0001(10) 
C2 0.0189(13) 0.0230(13) 0.0269(14) 0.0008(11) 0.0011(11) 0.0033(10) 
C3 0.0202(13) 0.0148(12) 0.0303(15) 0.0055(11) 0.0058(11) -0.0001(10) 
C4 0.0231(14) 0.0293(15) 0.0269(15) 0.0068(12) -0.0092(11) 0.0029(11) 
C5 0.0105(12) 0.0266(14) 0.0363(16) 0.0054(12) -0.0056(11) 0.0010(10) 
C6 0.0295(15) 0.0187(13) 0.0315(15) 0.0119(11) -0.0045(12) 0.0009(11) 
C7 0.0136(12) 0.0253(13) 0.0274(14) 0.0011(11) -0.0010(10) 0.0060(10) 
C8 0.0099(12) 0.0298(15) 0.0479(18) 0.0109(13) -0.0039(12) 0.0057(11) 
C9 0.0197(13) 0.0197(13) 0.0297(15) 0.0023(11) -0.0061(11) 0.0075(10) 
C10 0.0248(14) 0.0120(12) 0.0399(17) 0.0035(11) 0.0037(12) -0.0031(10) 
C11 0.0354(16) 0.0163(13) 0.0266(14) 0.0121(11) 0.0035(12) 0.0013(11) 
C12 0.0246(14) 0.0242(13) 0.0226(14) 0.0090(11) -0.0069(11) 0.0028(11) 
C13 0.0309(15) 0.0284(14) 0.0171(13) 0.0062(11) 0.0030(11) 0.0095(12) 
C14 0.0236(13) 0.0178(12) 0.0212(13) 0.0056(10) 0.0012(11) 0.0027(10) 
C15 0.0311(15) 0.0238(13) 0.0203(14) 0.0076(11) 0.0060(11) 0.0026(11) 
C16 0.0130(12) 0.0270(14) 0.0315(15) 0.0018(11) -0.0068(11) 0.0053(10) 
C17 0.0187(13) 0.0207(13) 0.0291(15) 0.0010(11) 0.0023(11) -0.0007(10) 
C18 0.0338(15) 0.0289(14) 0.0189(14) 0.0099(11) -0.0008(12) 0.0032(12) 
C19 0.0206(13) 0.0195(13) 0.0288(15) 0.0061(11) 0.0049(11) -0.0013(10) 
C20 0.0290(14) 0.0214(13) 0.0216(14) 0.0059(11) 0.0009(11) 0.0074(11) 
C21 0.0335(16) 0.0230(14) 0.0210(14) -0.0047(11) -0.0093(12) 0.0055(11) 
C22 0.0139(12) 0.0202(13) 0.0348(15) 0.0055(11) 0.0018(11) -0.0028(10) 
C23 0.0196(13) 0.0251(14) 0.0383(16) 0.0084(12) -0.0047(12) 0.0099(11) 
C24 0.0087(12) 0.0250(13) 0.0366(16) 0.0057(12) 0.0021(11) -0.0009(10) 
C25 0.0237(14) 0.0304(15) 0.0293(15) 0.0078(12) 0.0138(12) 0.0052(11) 
C26 0.0291(15) 0.0187(13) 0.0364(16) 0.0069(12) -0.0009(12) 0.0078(11) 
C27 0.0229(14) 0.0238(13) 0.0216(14) 0.0004(11) 0.0021(11) -0.0045(11) 
C28 0.0156(13) 0.0344(15) 0.0285(15) 0.0044(12) 0.0104(11) 0.0057(11) 
C29 0.0228(14) 0.0275(14) 0.0295(15) 0.0037(12) -0.0075(11) 0.0001(11) 
C30 0.0153(13) 0.0272(14) 0.0289(15) 0.0017(11) 0.0066(11) 0.0062(10) 
C31 0.0279(14) 0.0206(13) 0.0227(14) 0.0045(11) -0.0037(11) 0.0091(11) 
C32 0.0403(17) 0.0289(15) 0.0236(15) -0.0021(12) 0.0085(13) 0.0103(13) 
C33 0.0344(16) 0.0282(14) 0.0181(14) 0.0043(11) 0.0034(12) 0.0021(12) 
C34 0.0246(14) 0.0267(14) 0.0292(15) 0.0114(12) 0.0104(12) 0.0050(11) 
C35 0.0359(16) 0.0307(15) 0.0176(14) 0.0031(11) 0.0087(12) 0.0049(12) 
C36 0.0253(14) 0.0292(15) 0.0256(15) 0.0109(12) 0.0104(12) -0.0001(11) 
C37 0.0228(14) 0.0195(13) 0.0379(17) -0.0030(12) -0.0047(12) -0.0048(11) 
C38 0.0294(15) 0.0283(14) 0.0188(13) 0.0056(11) -0.0076(11) 0.0055(11) 
C39 0.0154(13) 0.0228(13) 0.0296(15) -0.0011(11) -0.0077(11) -0.0004(10) 
C40 0.0189(13) 0.0267(14) 0.0251(14) 0.0036(11) -0.0047(11) -0.0012(11) 
C41 0.0203(14) 0.0231(14) 0.0445(18) -0.0021(13) 0.0049(12) 0.0101(11) 
C42 0.0361(16) 0.0308(15) 0.0156(13) -0.0032(11) -0.0005(12) 0.0051(12) 
C43 0.0289(15) 0.0248(14) 0.0304(15) 0.0104(12) -0.0063(12) 0.0066(11) 
C44 0.0230(14) 0.0303(15) 0.0236(14) 0.0038(12) 0.0081(11) 0.0008(11) 
C45 0.0277(15) 0.0225(14) 0.0286(15) -0.0080(11) -0.0044(12) -0.0005(11) 
C46 0.0334(16) 0.0299(15) 0.0231(14) 0.0116(12) 0.0059(12) 0.0003(12) 
C47 0.0206(13) 0.0219(13) 0.0355(16) 0.0082(12) 0.0119(12) -0.0050(10) 
C48 0.0311(15) 0.0128(12) 0.0384(17) 0.0024(11) -0.0019(13) 0.0015(11) 
C49 0.0351(16) 0.0196(13) 0.0292(15) -0.0033(11) 0.0073(12) 0.0100(11) 
C50 0.0119(12) 0.0272(14) 0.0426(17) 0.0065(13) 0.0081(12) 0.0070(10) 
C51 0.0083(12) 0.0297(14) 0.0353(16) 0.0029(12) 0.0028(11) 0.0019(10) 
C52 0.0253(14) 0.0287(14) 0.0234(14) 0.0010(11) -0.0095(11) 0.0024(11) 
C53 0.0225(14) 0.0247(14) 0.0406(17) 0.0008(12) 0.0121(12) 0.0099(11) 
C54 0.0141(13) 0.0276(14) 0.0409(17) 0.0072(12) 0.0098(12) 0.0033(11) 
C55 0.0262(14) 0.0168(13) 0.0405(17) 0.0123(12) 0.0054(12) -0.0024(11) 
C56 0.0246(14) 0.0301(15) 0.0281(15) 0.0062(12) 0.0132(12) 0.0021(11) 
C57 0.0108(12) 0.0301(14) 0.0371(16) 0.0059(12) 0.0022(11) -0.0041(10) 
C58 0.0307(15) 0.0161(13) 0.0301(15) -0.0034(11) -0.0039(12) 0.0037(11) 
C59 0.0257(14) 0.0212(13) 0.0389(17) 0.0063(12) 0.0023(12) 0.0112(11) 
C60 0.0154(13) 0.0244(14) 0.0432(17) 0.0029(12) -0.0044(12) -0.0035(11) 
C61 0.0360(16) 0.0289(14) 0.0196(14) 0.0087(11) 0.0107(12) 0.0057(12) 
C62 0.0284(15) 0.0341(16) 0.0250(15) 0.0006(12) 0.0123(12) 0.0044(12) 
C63 0.0266(15) 0.0343(15) 0.0264(15) 0.0073(12) 0.0125(12) 0.0052(12) 
C64 0.0301(15) 0.0320(15) 0.0316(16) -0.0021(13) -0.0019(13) 0.0106(12) 
C65 0.0475(19) 0.0208(14) 0.0309(16) 0.0046(12) 0.0018(14) 0.0080(13) 
C66 0.0319(15) 0.0186(13) 0.0238(14) -0.0008(11) -0.0018(12) 0.0059(11) 
C67 0.0265(14) 0.0203(13) 0.0264(14) -0.0008(11) 0.0009(11) 0.0064(11) 
C68 0.0303(15) 0.0251(14) 0.0319(16) 0.0033(12) -0.0013(12) 0.0036(12) 
C69 0.0371(17) 0.0363(16) 0.0254(15) -0.0066(12) -0.0079(13) 0.0132(13) 
C70 0.0278(15) 0.0281(14) 0.0260(15) 0.0077(12) 0.0013(12) 0.0034(11) 
C71 0.0214(14) 0.0440(17) 0.0303(16) 0.0031(13) 0.0018(12) 0.0080(12) 
C72 0.0239(14) 0.0315(15) 0.0191(13) 0.0022(11) -0.0003(11) 0.0076(11) 
C73 0.0319(16) 0.0365(16) 0.0272(15) 0.0031(12) 0.0028(12) 0.0171(13) 
C74 0.0272(15) 0.0300(15) 0.0306(16) -0.0018(12) -0.0001(12) 0.0036(12) 
C75 0.0372(16) 0.0268(15) 0.0259(15) 0.0041(12) 0.0023(12) 0.0089(12) 
C76 0.0299(15) 0.0212(13) 0.0316(15) 0.0038(11) 0.0001(12) 0.0044(11) 
C77 0.0346(16) 0.0181(13) 0.0361(16) 0.0046(12) -0.0087(13) 0.0007(11) 
C78 0.0344(17) 0.0308(16) 0.0466(19) 0.0052(14) 0.0115(14) -0.0046(13) 
C79 0.0275(15) 0.0270(15) 0.0461(18) 0.0100(13) -0.0029(14) -0.0064(12) 
C80 0.0196(13) 0.0201(13) 0.0296(15) 0.0044(11) -0.0023(11) 0.0015(10) 
C1S 0.099(17) 0.22(2) 0.047(13) 0.003(12) -0.016(11) 0.107(16) 
C2S 0.044(4) 0.038(4) 0.079(6) -0.005(4) 0.012(4) 0.010(3) 
C3S 0.073(15) 0.090(14) 0.071(16) 0.032(11) 0.000(11) -0.004(10) 
C4S 0.042(5) 0.087(7) 0.072(6) 0.047(6) 0.022(5) 0.015(4) 
C5S 0.035(7) 0.017(4) 0.031(7) 0.007(4) 0.013(5) 0.001(4) 
C6S 0.042(4) 0.050(4) 0.044(4) 0.005(3) 0.002(3) 0.020(3) 
C7S 0.059(12) 0.067(9) 0.045(11) 0.007(7) 0.021(9) 0.041(9) 
N1 0.0237(12) 0.0193(11) 0.0231(12) 0.0019(9) 0.0015(9) -0.0003(9) 
N2 0.0267(12) 0.0254(12) 0.0381(14) 0.0029(10) 0.0073(11) -0.0050(10) 
O1 0.0350(11) 0.0272(10) 0.0303(11) 0.0021(9) -0.0037(9) 0.0007(8) 
O2 0.0354(11) 0.0252(10) 0.0272(10) 0.0025(8) 0.0020(8) 0.0013(8) 
S1 0.0336(4) 0.0317(4) 0.0226(4) 0.0022(3) -0.0031(3) 0.0035(3) 
  
_geom_special_details 
; 
 All esds (except the esd in the dihedral angle between two l.s. planes) 
 are estimated using the full covariance matrix.  The cell esds are taken 
 into account individually in the estimation of esds in distances, angles 
 and torsion angles; correlations between esds in cell parameters are only 
 used when they are defined by crystal symmetry.  An approximate (isotropic) 
 treatment of cell esds is used for estimating esds involving l.s. planes. 
; 
  
loop_ 
 _geom_bond_atom_site_label_1 
 _geom_bond_atom_site_label_2 
 _geom_bond_distance 
 _geom_bond_site_symmetry_2 
 _geom_bond_publ_flag 
C1 N1 1.281(3) . ? 
C1 C72 1.501(3) . ? 
C1 C2 1.545(4) . ? 
C2 C14 1.527(3) . ? 
C2 C67 1.550(4) . ? 
C2 C7 1.552(3) . ? 
C3 C14 1.354(4) . ? 
C3 C19 1.446(3) . ? 
C3 C17 1.501(4) . ? 
C4 C5 1.407(4) . ? 
C4 C29 1.433(4) . ? 
C4 C12 1.488(4) . ? 
C5 C8 1.438(4) . ? 
C5 C24 1.447(4) . ? 
C6 C11 1.370(4) . ? 
C6 C26 1.440(4) . ? 
C6 C43 1.462(4) . ? 
C7 C30 1.380(4) . ? 
C7 C9 1.476(4) . ? 
C8 C23 1.376(4) . ? 
C8 C50 1.458(4) . ? 
C9 C16 1.410(3) . ? 
C9 C31 1.466(4) . ? 
C10 C55 1.402(4) . ? 
C10 C37 1.444(4) . ? 
C10 C48 1.449(4) . ? 
C11 C46 1.434(4) . ? 
C11 C55 1.453(4) . ? 
C12 C43 1.415(4) . ? 
C12 C18 1.454(4) . ? 
C13 C61 1.359(4) . ? 
C13 C38 1.447(4) . ? 
C13 C42 1.462(4) . ? 
C14 C20 1.450(3) . ? 
C15 C20 1.401(3) . ? 
C15 C34 1.431(4) . ? 
C15 C61 1.445(4) . ? 
C16 C51 1.427(4) . ? 
C16 C39 1.438(4) . ? 
C17 N1 1.445(3) . ? 
C17 C80 1.556(3) . ? 
C17 C27 1.584(4) . ? 
C18 C46 1.406(4) . ? 
C18 C33 1.468(4) . ? 
C19 C34 1.381(4) . ? 
C19 C22 1.445(4) . ? 
C20 C31 1.452(4) . ? 
C21 C45 1.410(4) . ? 
C21 C42 1.436(4) . ? 
C21 C52 1.443(4) . ? 
C22 C24 1.392(3) . ? 
C22 C40 1.445(4) . ? 
C23 C59 1.443(4) . ? 
C23 C43 1.446(4) . ? 
C24 C54 1.436(4) . ? 
C25 C54 1.394(4) . ? 
C25 C63 1.433(4) . ? 
C25 C34 1.447(3) . ? 
C26 C48 1.388(4) . ? 
C26 C59 1.449(4) . ? 
C27 O1 1.209(3) . ? 
C27 C40 1.492(4) . ? 
C28 C51 1.377(4) . ? 
C28 C30 1.430(4) . ? 
C28 C56 1.437(4) . ? 
C29 C40 1.398(4) . ? 
C29 S1 1.780(3) . ? 
C29 C33 2.546(4) . ? 
C30 C44 1.553(4) . ? 
C31 C38 1.422(4) . ? 
C32 C42 1.385(4) . ? 
C32 C49 1.439(4) . ? 
C32 C62 1.454(4) . ? 
C33 C35 1.367(4) . ? 
C33 S1 1.754(3) . ? 
C35 C56 1.414(4) . ? 
C35 C44 1.518(4) . ? 
C36 C56 1.362(4) . ? 
C36 C47 1.435(4) . ? 
C36 C46 1.443(4) . ? 
C37 C60 1.394(4) . ? 
C37 C45 1.443(4) . ? 
C38 C52 1.436(4) . ? 
C39 C52 1.382(4) . ? 
C39 C60 1.464(4) . ? 
C41 C59 1.396(4) . ? 
C41 C53 1.452(4) . ? 
C41 C49 1.457(4) . ? 
C44 O2 1.202(3) . ? 
C45 C58 1.453(4) . ? 
C47 C57 1.407(4) . ? 
C47 C55 1.436(4) . ? 
C48 C58 1.458(4) . ? 
C49 C58 1.393(4) . ? 
C50 C53 1.382(4) . ? 
C50 C54 1.441(4) . ? 
C51 C57 1.441(4) . ? 
C53 C62 1.444(4) . ? 
C57 C60 1.436(4) . ? 
C61 C63 1.450(4) . ? 
C62 C63 1.375(4) . ? 
C64 C66 1.373(4) . ? 
C64 C69 1.391(4) . ? 
C65 C69 1.388(4) . ? 
C65 C68 1.394(4) . ? 
C66 C67 1.412(4) . ? 
C67 C68 1.391(4) . ? 
C70 C75 1.379(4) . ? 
C70 C72 1.383(4) . ? 
C71 C73 1.369(4) . ? 
C71 C74 1.388(4) . ? 
C72 C74 1.395(4) . ? 
C73 C75 1.392(4) . ? 
C76 C77 1.380(4) . ? 
C76 C80 1.387(4) . ? 
C77 C79 1.370(4) . ? 
C78 N2 1.353(3) . ? 
C78 C79 1.364(4) . ? 
C80 N2 1.328(3) . ? 
C1S C2S 1.412(11) . ? 
C1S C6S 1.420(11) . ? 
C2S C3S 1.409(12) . ? 
C3S C4S 1.419(12) . ? 
C4S C5S 1.403(9) . ? 
C5S C6S 1.408(8) . ? 
C6S C7S 1.402(16) . ? 
  
loop_ 
 _geom_angle_atom_site_label_1 
 _geom_angle_atom_site_label_2 
 _geom_angle_atom_site_label_3 
 _geom_angle 
 _geom_angle_site_symmetry_1 
 _geom_angle_site_symmetry_3 
 _geom_angle_publ_flag 
N1 C1 C72 114.4(2) . . ? 
N1 C1 C2 125.2(2) . . ? 
C72 C1 C2 120.2(2) . . ? 
C14 C2 C1 110.9(2) . . ? 
C14 C2 C67 109.9(2) . . ? 
C1 C2 C67 106.65(19) . . ? 
C14 C2 C7 102.32(19) . . ? 
C1 C2 C7 116.0(2) . . ? 
C67 C2 C7 111.0(2) . . ? 
C14 C3 C19 120.0(2) . . ? 
C14 C3 C17 122.2(2) . . ? 
C19 C3 C17 116.7(2) . . ? 
C5 C4 C29 115.5(2) . . ? 
C5 C4 C12 118.8(2) . . ? 
C29 C4 C12 122.3(2) . . ? 
C4 C5 C8 122.0(2) . . ? 
C4 C5 C24 120.9(2) . . ? 
C8 C5 C24 107.6(2) . . ? 
C11 C6 C26 120.7(3) . . ? 
C11 C6 C43 118.7(2) . . ? 
C26 C6 C43 109.3(2) . . ? 
C30 C7 C9 117.5(2) . . ? 
C30 C7 C2 127.1(2) . . ? 
C9 C7 C2 114.3(2) . . ? 
C23 C8 C5 120.0(2) . . ? 
C23 C8 C50 119.9(3) . . ? 
C5 C8 C50 109.0(2) . . ? 
C16 C9 C31 117.7(2) . . ? 
C16 C9 C7 119.0(2) . . ? 
C31 C9 C7 118.6(2) . . ? 
C55 C10 C37 119.8(2) . . ? 
C55 C10 C48 118.9(3) . . ? 
C37 C10 C48 108.1(2) . . ? 
C6 C11 C46 120.3(2) . . ? 
C6 C11 C55 119.8(2) . . ? 
C46 C11 C55 108.4(2) . . ? 
C43 C12 C18 118.0(2) . . ? 
C43 C12 C4 116.7(2) . . ? 
C18 C12 C4 118.2(2) . . ? 
C61 C13 C38 120.4(2) . . ? 
C61 C13 C42 120.6(2) . . ? 
C38 C13 C42 108.3(2) . . ? 
C3 C14 C20 120.6(2) . . ? 
C3 C14 C2 121.7(2) . . ? 
C20 C14 C2 116.8(2) . . ? 
C20 C15 C34 120.1(2) . . ? 
C20 C15 C61 121.3(2) . . ? 
C34 C15 C61 108.1(2) . . ? 
C9 C16 C51 120.8(2) . . ? 
C9 C16 C39 122.8(2) . . ? 
C51 C16 C39 107.3(2) . . ? 
N1 C17 C3 115.9(2) . . ? 
N1 C17 C80 107.37(19) . . ? 
C3 C17 C80 111.8(2) . . ? 
N1 C17 C27 106.9(2) . . ? 
C3 C17 C27 110.3(2) . . ? 
C80 C17 C27 103.7(2) . . ? 
C46 C18 C12 118.7(2) . . ? 
C46 C18 C33 116.6(2) . . ? 
C12 C18 C33 119.4(2) . . ? 
C34 C19 C22 118.6(2) . . ? 
C34 C19 C3 117.2(2) . . ? 
C22 C19 C3 117.1(2) . . ? 
C15 C20 C14 116.6(2) . . ? 
C15 C20 C31 119.7(2) . . ? 
C14 C20 C31 119.5(2) . . ? 
C45 C21 C42 119.7(2) . . ? 
C45 C21 C52 119.5(2) . . ? 
C42 C21 C52 107.9(2) . . ? 
C24 C22 C19 118.6(2) . . ? 
C24 C22 C40 117.0(2) . . ? 
C19 C22 C40 118.0(2) . . ? 
C8 C23 C59 119.9(3) . . ? 
C8 C23 C43 119.3(2) . . ? 
C59 C23 C43 109.6(2) . . ? 
C22 C24 C54 122.5(3) . . ? 
C22 C24 C5 119.9(2) . . ? 
C54 C24 C5 107.6(2) . . ? 
C54 C25 C63 119.7(2) . . ? 
C54 C25 C34 118.5(2) . . ? 
C63 C25 C34 109.3(3) . . ? 
C48 C26 C6 120.0(2) . . ? 
C48 C26 C59 120.6(3) . . ? 
C6 C26 C59 107.5(2) . . ? 
O1 C27 C40 123.0(2) . . ? 
O1 C27 C17 120.6(2) . . ? 
C40 C27 C17 116.4(2) . . ? 
C51 C28 C30 123.0(2) . . ? 
C51 C28 C56 118.8(2) . . ? 
C30 C28 C56 110.3(2) . . ? 
C40 C29 C4 121.5(2) . . ? 
C40 C29 S1 119.1(2) . . ? 
C4 C29 S1 118.1(2) . . ? 
C40 C29 C33 127.27(19) . . ? 
C4 C29 C33 88.33(17) . . ? 
S1 C29 C33 43.51(9) . . ? 
C7 C30 C28 119.9(2) . . ? 
C7 C30 C44 130.6(2) . . ? 
C28 C30 C44 104.7(2) . . ? 
C38 C31 C20 117.5(2) . . ? 
C38 C31 C9 118.5(2) . . ? 
C20 C31 C9 117.3(2) . . ? 
C42 C32 C49 119.6(3) . . ? 
C42 C32 C62 119.7(2) . . ? 
C49 C32 C62 108.4(3) . . ? 
C35 C33 C18 119.5(2) . . ? 
C35 C33 S1 120.3(2) . . ? 
C18 C33 S1 119.0(2) . . ? 
C35 C33 C29 125.03(19) . . ? 
C18 C33 C29 90.72(17) . . ? 
S1 C33 C29 44.31(9) . . ? 
C19 C34 C15 119.8(2) . . ? 
C19 C34 C25 122.5(3) . . ? 
C15 C34 C25 107.3(2) . . ? 
C33 C35 C56 120.0(2) . . ? 
C33 C35 C44 126.3(2) . . ? 
C56 C35 C44 107.4(2) . . ? 
C56 C36 C47 121.2(3) . . ? 
C56 C36 C46 118.1(2) . . ? 
C47 C36 C46 108.0(2) . . ? 
C60 C37 C45 119.6(3) . . ? 
C60 C37 C10 119.7(3) . . ? 
C45 C37 C10 108.3(2) . . ? 
C31 C38 C52 121.8(2) . . ? 
C31 C38 C13 121.2(2) . . ? 
C52 C38 C13 107.0(2) . . ? 
C52 C39 C16 119.4(2) . . ? 
C52 C39 C60 119.4(2) . . ? 
C16 C39 C60 108.2(2) . . ? 
C29 C40 C22 119.8(2) . . ? 
C29 C40 C27 121.6(2) . . ? 
C22 C40 C27 117.3(2) . . ? 
C59 C41 C53 119.7(3) . . ? 
C59 C41 C49 120.2(2) . . ? 
C53 C41 C49 107.6(2) . . ? 
C32 C42 C21 121.0(3) . . ? 
C32 C42 C13 119.2(2) . . ? 
C21 C42 C13 107.4(2) . . ? 
C12 C43 C23 122.9(2) . . ? 
C12 C43 C6 122.0(2) . . ? 
C23 C43 C6 105.8(2) . . ? 
O2 C44 C35 127.4(3) . . ? 
O2 C44 C30 130.6(2) . . ? 
C35 C44 C30 102.1(2) . . ? 
C21 C45 C37 120.2(2) . . ? 
C21 C45 C58 119.3(2) . . ? 
C37 C45 C58 108.2(2) . . ? 
C18 C46 C11 122.2(2) . . ? 
C18 C46 C36 120.7(2) . . ? 
C11 C46 C36 107.7(2) . . ? 
C57 C47 C36 118.7(2) . . ? 
C57 C47 C55 119.6(2) . . ? 
C36 C47 C55 108.6(2) . . ? 
C26 C48 C10 120.3(3) . . ? 
C26 C48 C58 119.7(2) . . ? 
C10 C48 C58 107.9(2) . . ? 
C58 C49 C32 120.6(2) . . ? 
C58 C49 C41 119.6(2) . . ? 
C32 C49 C41 107.9(2) . . ? 
C53 C50 C54 121.2(3) . . ? 
C53 C50 C8 120.4(2) . . ? 
C54 C50 C8 106.1(2) . . ? 
C28 C51 C16 117.3(2) . . ? 
C28 C51 C57 121.3(3) . . ? 
C16 C51 C57 109.3(2) . . ? 
C39 C52 C38 119.7(2) . . ? 
C39 C52 C21 120.7(2) . . ? 
C38 C52 C21 109.2(2) . . ? 
C50 C53 C62 119.3(2) . . ? 
C50 C53 C41 119.5(3) . . ? 
C62 C53 C41 108.3(2) . . ? 
C25 C54 C24 118.6(2) . . ? 
C25 C54 C50 118.9(3) . . ? 
C24 C54 C50 109.5(2) . . ? 
C10 C55 C47 120.4(3) . . ? 
C10 C55 C11 120.2(2) . . ? 
C47 C55 C11 107.2(2) . . ? 
C36 C56 C35 121.7(3) . . ? 
C36 C56 C28 120.7(3) . . ? 
C35 C56 C28 108.7(2) . . ? 
C47 C57 C60 119.9(2) . . ? 
C47 C57 C51 119.1(2) . . ? 
C60 C57 C51 107.7(2) . . ? 
C49 C58 C45 119.8(2) . . ? 
C49 C58 C48 120.1(2) . . ? 
C45 C58 C48 107.4(2) . . ? 
C41 C59 C23 120.3(2) . . ? 
C41 C59 C26 119.6(3) . . ? 
C23 C59 C26 107.7(2) . . ? 
C37 C60 C57 120.5(3) . . ? 
C37 C60 C39 120.3(2) . . ? 
C57 C60 C39 107.2(2) . . ? 
C13 C61 C15 119.6(2) . . ? 
C13 C61 C63 120.2(2) . . ? 
C15 C61 C63 108.3(2) . . ? 
C63 C62 C53 119.5(3) . . ? 
C63 C62 C32 120.2(3) . . ? 
C53 C62 C32 107.7(2) . . ? 
C62 C63 C25 121.2(3) . . ? 
C62 C63 C61 120.0(3) . . ? 
C25 C63 C61 106.7(2) . . ? 
C66 C64 C69 121.9(3) . . ? 
C69 C65 C68 120.7(3) . . ? 
C64 C66 C67 119.7(2) . . ? 
C68 C67 C66 118.8(2) . . ? 
C68 C67 C2 118.0(2) . . ? 
C66 C67 C2 123.1(2) . . ? 
C67 C68 C65 120.5(3) . . ? 
C65 C69 C64 118.4(3) . . ? 
C75 C70 C72 122.0(2) . . ? 
C73 C71 C74 121.2(3) . . ? 
C70 C72 C74 118.0(2) . . ? 
C70 C72 C1 117.8(2) . . ? 
C74 C72 C1 123.9(2) . . ? 
C71 C73 C75 119.3(3) . . ? 
C71 C74 C72 120.0(3) . . ? 
C70 C75 C73 119.4(3) . . ? 
C77 C76 C80 117.7(2) . . ? 
C79 C77 C76 119.7(3) . . ? 
N2 C78 C79 123.5(3) . . ? 
C78 C79 C77 118.6(3) . . ? 
N2 C80 C76 123.8(2) . . ? 
N2 C80 C17 116.5(2) . . ? 
C76 C80 C17 119.5(2) . . ? 
C2S C1S C6S 120.5(9) . . ? 
C3S C2S C1S 121.8(8) . . ? 
C2S C3S C4S 118.4(9) . . ? 
C5S C4S C3S 118.4(8) . . ? 
C4S C5S C6S 124.3(7) . . ? 
C7S C6S C5S 125.9(8) . . ? 
C7S C6S C1S 117.7(9) . . ? 
C5S C6S C1S 116.3(7) . . ? 
C1 N1 C17 123.1(2) . . ? 
C80 N2 C78 116.6(2) . . ? 
C33 S1 C29 92.18(12) . . ? 
  
loop_ 
 _geom_torsion_atom_site_label_1 
 _geom_torsion_atom_site_label_2 
 _geom_torsion_atom_site_label_3 
 _geom_torsion_atom_site_label_4 
 _geom_torsion 
 _geom_torsion_site_symmetry_1 
 _geom_torsion_site_symmetry_2 
 _geom_torsion_site_symmetry_3 
 _geom_torsion_site_symmetry_4 
 _geom_torsion_publ_flag 
N1 C1 C2 C14 5.8(3) . . . . ? 
C72 C1 C2 C14 -169.0(2) . . . . ? 
N1 C1 C2 C67 125.4(3) . . . . ? 
C72 C1 C2 C67 -49.3(3) . . . . ? 
N1 C1 C2 C7 -110.3(3) . . . . ? 
C72 C1 C2 C7 74.9(3) . . . . ? 
C29 C4 C5 C8 162.2(2) . . . . ? 
C12 C4 C5 C8 2.4(4) . . . . ? 
C29 C4 C5 C24 20.0(4) . . . . ? 
C12 C4 C5 C24 -139.8(3) . . . . ? 
C14 C2 C7 C30 -108.7(3) . . . . ? 
C1 C2 C7 C30 12.1(4) . . . . ? 
C67 C2 C7 C30 134.1(3) . . . . ? 
C14 C2 C7 C9 58.8(3) . . . . ? 
C1 C2 C7 C9 179.7(2) . . . . ? 
C67 C2 C7 C9 -58.4(3) . . . . ? 
C4 C5 C8 C23 0.4(4) . . . . ? 
C24 C5 C8 C23 147.0(2) . . . . ? 
C4 C5 C8 C50 -143.6(2) . . . . ? 
C24 C5 C8 C50 3.0(3) . . . . ? 
C30 C7 C9 C16 -16.7(3) . . . . ? 
C2 C7 C9 C16 174.5(2) . . . . ? 
C30 C7 C9 C31 138.5(2) . . . . ? 
C2 C7 C9 C31 -30.3(3) . . . . ? 
C26 C6 C11 C46 140.8(3) . . . . ? 
C43 C6 C11 C46 1.0(4) . . . . ? 
C26 C6 C11 C55 1.7(3) . . . . ? 
C43 C6 C11 C55 -138.0(2) . . . . ? 
C5 C4 C12 C43 -4.4(4) . . . . ? 
C29 C4 C12 C43 -162.7(2) . . . . ? 
C5 C4 C12 C18 145.6(2) . . . . ? 
C29 C4 C12 C18 -12.7(4) . . . . ? 
C19 C3 C14 C20 10.2(4) . . . . ? 
C17 C3 C14 C20 177.8(2) . . . . ? 
C19 C3 C14 C2 -158.3(2) . . . . ? 
C17 C3 C14 C2 9.3(4) . . . . ? 
C1 C2 C14 C3 -11.4(3) . . . . ? 
C67 C2 C14 C3 -129.1(2) . . . . ? 
C7 C2 C14 C3 112.9(3) . . . . ? 
C1 C2 C14 C20 179.6(2) . . . . ? 
C67 C2 C14 C20 62.0(3) . . . . ? 
C7 C2 C14 C20 -56.1(3) . . . . ? 
C31 C9 C16 C51 -141.3(2) . . . . ? 
C7 C9 C16 C51 14.1(3) . . . . ? 
C31 C9 C16 C39 1.4(4) . . . . ? 
C7 C9 C16 C39 156.8(2) . . . . ? 
C14 C3 C17 N1 -0.5(3) . . . . ? 
C19 C3 C17 N1 167.5(2) . . . . ? 
C14 C3 C17 C80 123.0(2) . . . . ? 
C19 C3 C17 C80 -69.0(3) . . . . ? 
C14 C3 C17 C27 -122.1(2) . . . . ? 
C19 C3 C17 C27 45.9(3) . . . . ? 
C43 C12 C18 C46 5.4(3) . . . . ? 
C4 C12 C18 C46 -144.2(2) . . . . ? 
C43 C12 C18 C33 158.8(2) . . . . ? 
C4 C12 C18 C33 9.2(4) . . . . ? 
C14 C3 C19 C34 -24.6(3) . . . . ? 
C17 C3 C19 C34 167.2(2) . . . . ? 
C14 C3 C19 C22 125.4(3) . . . . ? 
C17 C3 C19 C22 -42.8(3) . . . . ? 
C34 C15 C20 C14 -18.9(3) . . . . ? 
C61 C15 C20 C14 -159.7(2) . . . . ? 
C34 C15 C20 C31 137.9(3) . . . . ? 
C61 C15 C20 C31 -2.9(4) . . . . ? 
C3 C14 C20 C15 11.4(3) . . . . ? 
C2 C14 C20 C15 -179.5(2) . . . . ? 
C3 C14 C20 C31 -145.5(2) . . . . ? 
C2 C14 C20 C31 23.6(3) . . . . ? 
C34 C19 C22 C24 -1.0(3) . . . . ? 
C3 C19 C22 C24 -150.6(2) . . . . ? 
C34 C19 C22 C40 150.0(2) . . . . ? 
C3 C19 C22 C40 0.4(3) . . . . ? 
C5 C8 C23 C59 -141.2(3) . . . . ? 
C50 C8 C23 C59 -1.2(4) . . . . ? 
C5 C8 C23 C43 -1.1(4) . . . . ? 
C50 C8 C23 C43 138.9(3) . . . . ? 
C19 C22 C24 C54 -6.7(3) . . . . ? 
C40 C22 C24 C54 -158.0(2) . . . . ? 
C19 C22 C24 C5 134.7(2) . . . . ? 
C40 C22 C24 C5 -16.7(4) . . . . ? 
C4 C5 C24 C22 -3.2(4) . . . . ? 
C8 C5 C24 C22 -150.3(2) . . . . ? 
C4 C5 C24 C54 143.2(2) . . . . ? 
C8 C5 C24 C54 -3.8(3) . . . . ? 
C11 C6 C26 C48 -3.6(4) . . . . ? 
C43 C6 C26 C48 139.5(2) . . . . ? 
C11 C6 C26 C59 -146.4(2) . . . . ? 
C43 C6 C26 C59 -3.4(3) . . . . ? 
N1 C17 C27 O1 44.4(3) . . . . ? 
C3 C17 C27 O1 171.2(2) . . . . ? 
C80 C17 C27 O1 -68.9(3) . . . . ? 
N1 C17 C27 C40 -137.3(2) . . . . ? 
C3 C17 C27 C40 -10.5(3) . . . . ? 
C80 C17 C27 C40 109.5(2) . . . . ? 
C5 C4 C29 C40 -17.2(4) . . . . ? 
C12 C4 C29 C40 141.9(3) . . . . ? 
C5 C4 C29 S1 175.96(19) . . . . ? 
C12 C4 C29 S1 -25.0(3) . . . . ? 
C5 C4 C29 C33 -151.0(2) . . . . ? 
C12 C4 C29 C33 8.0(3) . . . . ? 
C9 C7 C30 C28 6.4(3) . . . . ? 
C2 C7 C30 C28 173.6(2) . . . . ? 
C9 C7 C30 C44 -145.0(3) . . . . ? 
C2 C7 C30 C44 22.2(4) . . . . ? 
C51 C28 C30 C7 7.2(4) . . . . ? 
C56 C28 C30 C7 -141.4(2) . . . . ? 
C51 C28 C30 C44 165.1(2) . . . . ? 
C56 C28 C30 C44 16.6(3) . . . . ? 
C15 C20 C31 C38 6.4(3) . . . . ? 
C14 C20 C31 C38 162.5(2) . . . . ? 
C15 C20 C31 C9 -144.6(2) . . . . ? 
C14 C20 C31 C9 11.5(3) . . . . ? 
C16 C9 C31 C38 -2.7(3) . . . . ? 
C7 C9 C31 C38 -158.3(2) . . . . ? 
C16 C9 C31 C20 148.0(2) . . . . ? 
C7 C9 C31 C20 -7.6(3) . . . . ? 
C46 C18 C33 C35 18.9(4) . . . . ? 
C12 C18 C33 C35 -135.0(3) . . . . ? 
C46 C18 C33 S1 -173.49(19) . . . . ? 
C12 C18 C33 S1 32.6(3) . . . . ? 
C46 C18 C33 C29 150.7(2) . . . . ? 
C12 C18 C33 C29 -3.2(2) . . . . ? 
C40 C29 C33 C35 -4.6(4) . . . . ? 
C4 C29 C33 C35 124.8(3) . . . . ? 
S1 C29 C33 C35 -99.5(2) . . . . ? 
C40 C29 C33 C18 -132.1(3) . . . . ? 
C4 C29 C33 C18 -2.7(2) . . . . ? 
S1 C29 C33 C18 132.9(2) . . . . ? 
C40 C29 C33 S1 94.9(3) . . . . ? 
C4 C29 C33 S1 -135.7(2) . . . . ? 
C22 C19 C34 C15 -132.7(2) . . . . ? 
C3 C19 C34 C15 16.9(3) . . . . ? 
C22 C19 C34 C25 7.8(4) . . . . ? 
C3 C19 C34 C25 157.3(2) . . . . ? 
C20 C15 C34 C19 4.7(4) . . . . ? 
C61 C15 C34 C19 150.1(2) . . . . ? 
C20 C15 C34 C25 -141.0(2) . . . . ? 
C61 C15 C34 C25 4.4(3) . . . . ? 
C54 C25 C34 C19 -6.8(4) . . . . ? 
C63 C25 C34 C19 -148.7(2) . . . . ? 
C54 C25 C34 C15 137.9(2) . . . . ? 
C63 C25 C34 C15 -4.1(3) . . . . ? 
C18 C33 C35 C56 -7.1(4) . . . . ? 
S1 C33 C35 C56 -174.54(19) . . . . ? 
C29 C33 C35 C56 -121.6(2) . . . . ? 
C18 C33 C35 C44 141.6(3) . . . . ? 
S1 C33 C35 C44 -25.8(4) . . . . ? 
C29 C33 C35 C44 27.2(4) . . . . ? 
C55 C10 C37 C60 0.3(4) . . . . ? 
C48 C10 C37 C60 140.9(2) . . . . ? 
C55 C10 C37 C45 -141.7(2) . . . . ? 
C48 C10 C37 C45 -1.1(3) . . . . ? 
C20 C31 C38 C52 -147.2(2) . . . . ? 
C9 C31 C38 C52 3.5(4) . . . . ? 
C20 C31 C38 C13 -6.1(3) . . . . ? 
C9 C31 C38 C13 144.5(2) . . . . ? 
C61 C13 C38 C31 2.3(4) . . . . ? 
C42 C13 C38 C31 -142.4(2) . . . . ? 
C61 C13 C38 C52 148.3(2) . . . . ? 
C42 C13 C38 C52 3.6(3) . . . . ? 
C9 C16 C39 C52 -0.7(4) . . . . ? 
C51 C16 C39 C52 146.2(2) . . . . ? 
C9 C16 C39 C60 -141.9(2) . . . . ? 
C51 C16 C39 C60 5.0(3) . . . . ? 
C4 C29 C40 C22 -2.4(4) . . . . ? 
S1 C29 C40 C22 164.38(19) . . . . ? 
C33 C29 C40 C22 112.7(3) . . . . ? 
C4 C29 C40 C27 -168.8(2) . . . . ? 
S1 C29 C40 C27 -2.1(3) . . . . ? 
C33 C29 C40 C27 -53.8(3) . . . . ? 
C24 C22 C40 C29 19.5(4) . . . . ? 
C19 C22 C40 C29 -132.0(3) . . . . ? 
C24 C22 C40 C27 -173.5(2) . . . . ? 
C19 C22 C40 C27 35.0(3) . . . . ? 
O1 C27 C40 C29 -43.5(4) . . . . ? 
C17 C27 C40 C29 138.2(2) . . . . ? 
O1 C27 C40 C22 149.7(2) . . . . ? 
C17 C27 C40 C22 -28.6(3) . . . . ? 
C49 C32 C42 C21 2.0(4) . . . . ? 
C62 C32 C42 C21 140.0(3) . . . . ? 
C49 C32 C42 C13 -135.2(3) . . . . ? 
C62 C32 C42 C13 2.7(4) . . . . ? 
C45 C21 C42 C32 0.3(4) . . . . ? 
C52 C21 C42 C32 -141.0(3) . . . . ? 
C45 C21 C42 C13 141.9(2) . . . . ? 
C52 C21 C42 C13 0.6(3) . . . . ? 
C61 C13 C42 C32 -4.8(4) . . . . ? 
C38 C13 C42 C32 139.8(3) . . . . ? 
C61 C13 C42 C21 -147.3(2) . . . . ? 
C38 C13 C42 C21 -2.6(3) . . . . ? 
C18 C12 C43 C23 -146.3(3) . . . . ? 
C4 C12 C43 C23 3.8(4) . . . . ? 
C18 C12 C43 C6 -4.5(4) . . . . ? 
C4 C12 C43 C6 145.6(2) . . . . ? 
C8 C23 C43 C12 -1.1(4) . . . . ? 
C59 C23 C43 C12 142.7(3) . . . . ? 
C8 C23 C43 C6 -148.0(2) . . . . ? 
C59 C23 C43 C6 -4.2(3) . . . . ? 
C11 C6 C43 C12 1.3(4) . . . . ? 
C26 C6 C43 C12 -142.6(2) . . . . ? 
C11 C6 C43 C23 148.6(2) . . . . ? 
C26 C6 C43 C23 4.7(3) . . . . ? 
C33 C35 C44 O2 51.2(4) . . . . ? 
C56 C35 C44 O2 -156.9(3) . . . . ? 
C33 C35 C44 C30 -127.1(3) . . . . ? 
C56 C35 C44 C30 24.8(2) . . . . ? 
C7 C30 C44 O2 -48.3(4) . . . . ? 
C28 C30 C44 O2 157.1(3) . . . . ? 
C7 C30 C44 C35 129.9(3) . . . . ? 
C28 C30 C44 C35 -24.7(2) . . . . ? 
C42 C21 C45 C37 -140.0(3) . . . . ? 
C52 C21 C45 C37 -3.1(4) . . . . ? 
C42 C21 C45 C58 -2.2(4) . . . . ? 
C52 C21 C45 C58 134.7(3) . . . . ? 
C60 C37 C45 C21 -0.9(4) . . . . ? 
C10 C37 C45 C21 141.2(2) . . . . ? 
C60 C37 C45 C58 -142.8(2) . . . . ? 
C10 C37 C45 C58 -0.8(3) . . . . ? 
C12 C18 C46 C11 -3.4(4) . . . . ? 
C33 C18 C46 C11 -157.5(2) . . . . ? 
C12 C18 C46 C36 138.8(3) . . . . ? 
C33 C18 C46 C36 -15.3(4) . . . . ? 
C6 C11 C46 C18 0.1(4) . . . . ? 
C55 C11 C46 C18 143.2(2) . . . . ? 
C6 C11 C46 C36 -146.3(2) . . . . ? 
C55 C11 C46 C36 -3.2(3) . . . . ? 
C56 C36 C46 C18 -0.1(4) . . . . ? 
C47 C36 C46 C18 -142.4(2) . . . . ? 
C56 C36 C46 C11 146.9(2) . . . . ? 
C47 C36 C46 C11 4.6(3) . . . . ? 
C56 C36 C47 C57 -4.3(4) . . . . ? 
C46 C36 C47 C57 136.6(2) . . . . ? 
C56 C36 C47 C55 -145.2(2) . . . . ? 
C46 C36 C47 C55 -4.4(3) . . . . ? 
C6 C26 C48 C10 2.2(4) . . . . ? 
C59 C26 C48 C10 140.2(2) . . . . ? 
C6 C26 C48 C58 -135.9(3) . . . . ? 
C59 C26 C48 C58 2.1(4) . . . . ? 
C55 C10 C48 C26 1.1(4) . . . . ? 
C37 C10 C48 C26 -139.9(2) . . . . ? 
C55 C10 C48 C58 143.5(2) . . . . ? 
C37 C10 C48 C58 2.5(3) . . . . ? 
C42 C32 C49 C58 -2.5(4) . . . . ? 
C62 C32 C49 C58 -144.7(3) . . . . ? 
C42 C32 C49 C41 140.1(3) . . . . ? 
C62 C32 C49 C41 -2.1(3) . . . . ? 
C59 C41 C49 C58 3.3(4) . . . . ? 
C53 C41 C49 C58 145.2(2) . . . . ? 
C59 C41 C49 C32 -139.7(2) . . . . ? 
C53 C41 C49 C32 2.2(3) . . . . ? 
C23 C8 C50 C53 -2.4(4) . . . . ? 
C5 C8 C50 C53 141.6(2) . . . . ? 
C23 C8 C50 C54 -145.0(2) . . . . ? 
C5 C8 C50 C54 -1.1(3) . . . . ? 
C30 C28 C51 C16 -10.0(4) . . . . ? 
C56 C28 C51 C16 136.0(2) . . . . ? 
C30 C28 C51 C57 -148.4(2) . . . . ? 
C56 C28 C51 C57 -2.4(3) . . . . ? 
C9 C16 C51 C28 -0.9(4) . . . . ? 
C39 C16 C51 C28 -148.7(2) . . . . ? 
C9 C16 C51 C57 142.1(2) . . . . ? 
C39 C16 C51 C57 -5.7(3) . . . . ? 
C16 C39 C52 C38 1.3(4) . . . . ? 
C60 C39 C52 C38 138.2(3) . . . . ? 
C16 C39 C52 C21 -140.0(3) . . . . ? 
C60 C39 C52 C21 -3.1(4) . . . . ? 
C31 C38 C52 C39 -2.8(4) . . . . ? 
C13 C38 C52 C39 -148.6(2) . . . . ? 
C31 C38 C52 C21 142.5(2) . . . . ? 
C13 C38 C52 C21 -3.3(3) . . . . ? 
C45 C21 C52 C39 5.1(4) . . . . ? 
C42 C21 C52 C39 146.5(2) . . . . ? 
C45 C21 C52 C38 -139.7(3) . . . . ? 
C42 C21 C52 C38 1.7(3) . . . . ? 
C54 C50 C53 C62 3.3(4) . . . . ? 
C8 C50 C53 C62 -133.8(3) . . . . ? 
C54 C50 C53 C41 140.3(2) . . . . ? 
C8 C50 C53 C41 3.2(4) . . . . ? 
C59 C41 C53 C50 -0.5(4) . . . . ? 
C49 C41 C53 C50 -142.6(2) . . . . ? 
C59 C41 C53 C62 140.7(2) . . . . ? 
C49 C41 C53 C62 -1.4(3) . . . . ? 
C63 C25 C54 C24 137.0(2) . . . . ? 
C34 C25 C54 C24 -1.0(3) . . . . ? 
C63 C25 C54 C50 -0.4(3) . . . . ? 
C34 C25 C54 C50 -138.3(2) . . . . ? 
C22 C24 C54 C25 7.7(4) . . . . ? 
C5 C24 C54 C25 -137.7(2) . . . . ? 
C22 C24 C54 C50 148.6(2) . . . . ? 
C5 C24 C54 C50 3.2(3) . . . . ? 
C53 C50 C54 C25 -2.9(4) . . . . ? 
C8 C50 C54 C25 139.5(2) . . . . ? 
C53 C50 C54 C24 -143.7(2) . . . . ? 
C8 C50 C54 C24 -1.3(3) . . . . ? 
C37 C10 C55 C47 -3.9(4) . . . . ? 
C48 C10 C55 C47 -140.3(2) . . . . ? 
C37 C10 C55 C11 133.5(3) . . . . ? 
C48 C10 C55 C11 -2.9(3) . . . . ? 
C57 C47 C55 C10 4.1(4) . . . . ? 
C36 C47 C55 C10 144.6(2) . . . . ? 
C57 C47 C55 C11 -138.2(2) . . . . ? 
C36 C47 C55 C11 2.4(3) . . . . ? 
C6 C11 C55 C10 1.6(4) . . . . ? 
C46 C11 C55 C10 -141.8(2) . . . . ? 
C6 C11 C55 C47 143.9(2) . . . . ? 
C46 C11 C55 C47 0.5(3) . . . . ? 
C47 C36 C56 C35 150.1(2) . . . . ? 
C46 C36 C56 C35 13.0(4) . . . . ? 
C47 C36 C56 C28 6.4(4) . . . . ? 
C46 C36 C56 C28 -130.7(3) . . . . ? 
C33 C35 C56 C36 -9.3(4) . . . . ? 
C44 C35 C56 C36 -163.3(2) . . . . ? 
C33 C35 C56 C28 138.1(2) . . . . ? 
C44 C35 C56 C28 -15.9(3) . . . . ? 
C51 C28 C56 C36 -3.0(3) . . . . ? 
C30 C28 C56 C36 147.0(2) . . . . ? 
C51 C28 C56 C35 -150.9(2) . . . . ? 
C30 C28 C56 C35 -0.9(3) . . . . ? 
C36 C47 C57 C60 -137.3(2) . . . . ? 
C55 C47 C57 C60 -0.6(3) . . . . ? 
C36 C47 C57 C51 -1.1(3) . . . . ? 
C55 C47 C57 C51 135.6(2) . . . . ? 
C28 C51 C57 C47 4.4(3) . . . . ? 
C16 C51 C57 C47 -136.9(2) . . . . ? 
C28 C51 C57 C60 145.4(2) . . . . ? 
C16 C51 C57 C60 4.1(3) . . . . ? 
C32 C49 C58 C45 0.6(4) . . . . ? 
C41 C49 C58 C45 -137.8(3) . . . . ? 
C32 C49 C58 C48 137.6(3) . . . . ? 
C41 C49 C58 C48 -0.8(4) . . . . ? 
C21 C45 C58 C49 1.7(4) . . . . ? 
C37 C45 C58 C49 144.1(2) . . . . ? 
C21 C45 C58 C48 -140.1(2) . . . . ? 
C37 C45 C58 C48 2.3(3) . . . . ? 
C26 C48 C58 C49 -1.9(4) . . . . ? 
C10 C48 C58 C49 -144.6(2) . . . . ? 
C26 C48 C58 C45 139.7(2) . . . . ? 
C10 C48 C58 C45 -2.9(3) . . . . ? 
C53 C41 C59 C23 -3.1(4) . . . . ? 
C49 C41 C59 C23 134.4(3) . . . . ? 
C53 C41 C59 C26 -140.5(2) . . . . ? 
C49 C41 C59 C26 -3.1(4) . . . . ? 
C8 C23 C59 C41 3.9(4) . . . . ? 
C43 C23 C59 C41 -139.7(2) . . . . ? 
C8 C23 C59 C26 145.8(2) . . . . ? 
C43 C23 C59 C26 2.2(3) . . . . ? 
C48 C26 C59 C41 0.4(4) . . . . ? 
C6 C26 C59 C41 143.0(2) . . . . ? 
C48 C26 C59 C23 -141.9(2) . . . . ? 
C6 C26 C59 C23 0.7(3) . . . . ? 
C45 C37 C60 C57 140.9(3) . . . . ? 
C10 C37 C60 C57 3.1(4) . . . . ? 
C45 C37 C60 C39 3.0(4) . . . . ? 
C10 C37 C60 C39 -134.8(3) . . . . ? 
C47 C57 C60 C37 -3.0(4) . . . . ? 
C51 C57 C60 C37 -143.6(2) . . . . ? 
C47 C57 C60 C39 139.7(2) . . . . ? 
C51 C57 C60 C39 -0.9(3) . . . . ? 
C52 C39 C60 C37 -1.0(4) . . . . ? 
C16 C39 C60 C37 140.2(2) . . . . ? 
C52 C39 C60 C57 -143.8(2) . . . . ? 
C16 C39 C60 C57 -2.6(3) . . . . ? 
C38 C13 C61 C15 1.4(4) . . . . ? 
C42 C13 C61 C15 141.8(2) . . . . ? 
C38 C13 C61 C63 -137.1(3) . . . . ? 
C42 C13 C61 C63 3.3(4) . . . . ? 
C20 C15 C61 C13 -1.1(4) . . . . ? 
C34 C15 C61 C13 -146.0(2) . . . . ? 
C20 C15 C61 C63 141.8(2) . . . . ? 
C34 C15 C61 C63 -3.1(3) . . . . ? 
C50 C53 C62 C63 -0.5(4) . . . . ? 
C41 C53 C62 C63 -141.8(2) . . . . ? 
C50 C53 C62 C32 141.4(2) . . . . ? 
C41 C53 C62 C32 0.1(3) . . . . ? 
C42 C32 C62 C63 0.7(4) . . . . ? 
C49 C32 C62 C63 142.9(3) . . . . ? 
C42 C32 C62 C53 -140.9(3) . . . . ? 
C49 C32 C62 C53 1.2(3) . . . . ? 
C53 C62 C63 C25 -2.7(4) . . . . ? 
C32 C62 C63 C25 -139.9(3) . . . . ? 
C53 C62 C63 C61 134.9(3) . . . . ? 
C32 C62 C63 C61 -2.3(4) . . . . ? 
C54 C25 C63 C62 3.1(4) . . . . ? 
C34 C25 C63 C62 144.5(2) . . . . ? 
C54 C25 C63 C61 -139.3(2) . . . . ? 
C34 C25 C63 C61 2.1(3) . . . . ? 
C13 C61 C63 C62 0.2(4) . . . . ? 
C15 C61 C63 C62 -142.4(2) . . . . ? 
C13 C61 C63 C25 143.2(2) . . . . ? 
C15 C61 C63 C25 0.6(3) . . . . ? 
C69 C64 C66 C67 0.3(4) . . . . ? 
C64 C66 C67 C68 -0.5(4) . . . . ? 
C64 C66 C67 C2 -177.1(2) . . . . ? 
C14 C2 C67 C68 44.7(3) . . . . ? 
C1 C2 C67 C68 -75.6(3) . . . . ? 
C7 C2 C67 C68 157.2(2) . . . . ? 
C14 C2 C67 C66 -138.7(2) . . . . ? 
C1 C2 C67 C66 101.0(3) . . . . ? 
C7 C2 C67 C66 -26.2(3) . . . . ? 
C66 C67 C68 C65 1.2(4) . . . . ? 
C2 C67 C68 C65 178.0(2) . . . . ? 
C69 C65 C68 C67 -1.7(4) . . . . ? 
C68 C65 C69 C64 1.5(4) . . . . ? 
C66 C64 C69 C65 -0.8(4) . . . . ? 
C75 C70 C72 C74 -1.1(4) . . . . ? 
C75 C70 C72 C1 173.4(2) . . . . ? 
N1 C1 C72 C70 -35.6(3) . . . . ? 
C2 C1 C72 C70 139.7(2) . . . . ? 
N1 C1 C72 C74 138.6(3) . . . . ? 
C2 C1 C72 C74 -46.1(4) . . . . ? 
C74 C71 C73 C75 -0.5(4) . . . . ? 
C73 C71 C74 C72 -2.1(4) . . . . ? 
C70 C72 C74 C71 2.9(4) . . . . ? 
C1 C72 C74 C71 -171.3(3) . . . . ? 
C72 C70 C75 C73 -1.5(4) . . . . ? 
C71 C73 C75 C70 2.3(4) . . . . ? 
C80 C76 C77 C79 0.5(4) . . . . ? 
N2 C78 C79 C77 -2.3(5) . . . . ? 
C76 C77 C79 C78 1.6(4) . . . . ? 
C77 C76 C80 N2 -2.1(4) . . . . ? 
C77 C76 C80 C17 -176.8(2) . . . . ? 
N1 C17 C80 N2 152.2(2) . . . . ? 
C3 C17 C80 N2 24.0(3) . . . . ? 
C27 C17 C80 N2 -94.9(3) . . . . ? 
N1 C17 C80 C76 -32.8(3) . . . . ? 
C3 C17 C80 C76 -160.9(2) . . . . ? 
C27 C17 C80 C76 80.2(3) . . . . ? 
C6S C1S C2S C3S -0.1(12) . . . . ? 
C1S C2S C3S C4S 3.2(15) . . . . ? 
C2S C3S C4S C5S -5.7(16) . . . . ? 
C3S C4S C5S C6S 5.6(13) . . . . ? 
C4S C5S C6S C7S 179.6(10) . . . . ? 
C4S C5S C6S C1S -2.5(15) . . . . ? 
C2S C1S C6S C7S 177.8(11) . . . . ? 
C2S C1S C6S C5S -0.3(16) . . . . ? 
C72 C1 N1 C17 177.4(2) . . . . ? 
C2 C1 N1 C17 2.4(4) . . . . ? 
C3 C17 N1 C1 -5.5(3) . . . . ? 
C80 C17 N1 C1 -131.3(2) . . . . ? 
C27 C17 N1 C1 117.9(2) . . . . ? 
C76 C80 N2 C78 1.4(4) . . . . ? 
C17 C80 N2 C78 176.3(2) . . . . ? 
C79 C78 N2 C80 0.8(4) . . . . ? 
C35 C33 S1 C29 110.6(2) . . . . ? 
C18 C33 S1 C29 -56.8(2) . . . . ? 
C40 C29 S1 C33 -114.8(2) . . . . ? 
C4 C29 S1 C33 52.4(2) . . . . ? 
  
_diffrn_measured_fraction_theta_max    0.982 
_diffrn_reflns_theta_full              25.60 
_diffrn_measured_fraction_theta_full   0.982 
_refine_diff_density_max    0.705 
_refine_diff_density_min   -0.374 
_refine_diff_density_rms    0.069 
  
  
